120
150
80
86
75
63
38
49
95
91
33
32
85
59
41
66
100
84
30
91
32
91
59
52
45
53
88
84
24
54
66
45
48
87
72
57
36
83
36
41
92
68
58
43
86
36
97
84
53
39
40
75
88
97
80
87
27
87
62
83
63
81
63
95
53
92
20
75
100
97
82
87
87
92
55
92
38
85
24
53
33
87
63
27
96
100
63
63
97
100
87
100
45
66
75
49
30
39
69
53
25
67
100
69
26
49
68
92
100
100
49
54
49
65
58
57
32
26
100
63
75
49
